data/solutions/recovery/wellformed/moderate/flexible/wellformed_moderate_instance64/28.sol
Elapsed time: 92.34
Upper bound: 4861.0
Planning weighted value: 130786.0
C[0]=4861.0
C[1]=4861.0
C[2]=4861.0
C[3]=4861.0
C[4]=0.0
y[0]=3
y[1]=2
y[2]=0
y[3]=1
y[4]=3
y[5]=3
y[6]=1
y[7]=3
y[8]=3
y[9]=2
y[10]=3
y[11]=1
y[12]=3
y[13]=3
y[14]=3
y[15]=2
y[16]=3
y[17]=3
y[18]=0
y[19]=0
y[20]=0
y[21]=0
y[22]=1
y[23]=0
y[24]=0
y[25]=0
y[26]=2
y[27]=1
y[28]=1
y[29]=2
y[30]=1
y[31]=2
y[32]=0
y[33]=1
y[34]=3
y[35]=3
y[36]=3
y[37]=2
y[38]=2
y[39]=2
y[40]=1
