data/solutions/recovery/wellformed/moderate/flexible/wellformed_moderate_instance64/28.log

Log started (V12.6.3.0) Fri Apr 20 20:12:03 2018

New value for default parallel thread count: 1

Problem '/tmp/tmpEnK8jE.pyomo.lp' read.
Read time = 0.00 sec. (0.09 ticks)

Problem name         : /tmp/tmpEnK8jE.pyomo.lp
Objective sense      : Minimize
Variables            :     212  [Nneg: 1,  Binary: 205,  General Integer: 6]
Objective nonzeros   :       1
Linear constraints   :      94  [Less: 46,  Equal: 48]
  Nonzeros           :    5859
  RHS nonzeros       :      83

Variables            : Min LB: 0.000000         Max UB: 1.000000       
Objective nonzeros   : Min   : 1.000000         Max   : 1.000000       
Linear constraints   :
  Nonzeros           : Min   : 1.000000         Max   : 1963.000       
  RHS nonzeros       : Min   : 1.000000         Max   : 5.000000       
Tried aggregator 2 times.
MIP Presolve eliminated 44 rows and 55 columns.
Aggregator did 8 substitutions.
Reduced MIP has 42 rows, 149 columns, and 387 nonzeros.
Reduced MIP has 148 binaries, 1 generals, 0 SOSs, and 0 indicators.
Presolve time = 0.00 sec. (1.44 ticks)
Found incumbent of value 19444.000000 after 0.00 sec. (1.75 ticks)
Probing time = 0.00 sec. (0.12 ticks)
Cover probing fixed 0 vars, tightened 6 bounds.
Tried aggregator 1 time.
Reduced MIP has 42 rows, 149 columns, and 387 nonzeros.
Reduced MIP has 148 binaries, 1 generals, 0 SOSs, and 0 indicators.
Presolve time = 0.00 sec. (0.27 ticks)
Probing time = 0.00 sec. (0.08 ticks)
Clique table members: 37.
MIP emphasis: balance optimality and feasibility.
MIP search method: dynamic search.
Parallel mode: none, using 1 thread.
Root relaxation solution time = 0.00 sec. (0.12 ticks)

        Nodes                                         Cuts/
   Node  Left     Objective  IInf  Best Integer    Best Bound    ItCnt     Gap

*     0+    0                        19444.0000     1963.0000            89.90%
      0     0     4861.0000     5    19444.0000     4861.0000        6   75.00%
*     0+    0                         5301.0000     4861.0000             8.30%
      0     0     4861.0000    12     5301.0000      Fract: 4       14    8.30%
*     0+    0                         5257.0000     4861.0000             7.53%
      0     0     4861.0000     8     5257.0000       Cuts: 5       19    7.53%
*     0+    0                         5132.0000     4861.0000             5.28%
      0     0     4861.0000    10     5132.0000    MIRcuts: 2       21    5.28%
*     0+    0                         5017.0000     4861.0000             3.11%
*     0+    0                         4973.0000     4861.0000             2.25%
      0     2     4861.0000     7     4973.0000     4861.0000       21    2.25%
Elapsed time = 0.01 sec. (8.58 ticks, tree = 0.01 MB, solutions = 6)
*    20+   14                         4963.0000     4861.0000             2.06%
*    27    17      integral     0     4907.0000     4861.0000       69    0.94%
*    30+   18                         4902.0000     4861.0000             0.84%
*    54    30      integral     0     4872.0000     4861.0000      108    0.23%
*  1526   470      integral     0     4870.0000     4861.0000     3000    0.18%
*  2263+  263                         4867.0000     4861.0000             0.12%
*  2763+  319                         4866.0000     4861.0000             0.10%
   2849   351     4861.0000     6     4866.0000     4861.0000     5794    0.10%
   2850   352     4861.0000     5     4866.0000     4861.0000     5795    0.10%
   2851   352     4861.0000     8     4866.0000     4861.0000     5797    0.10%
   2852   353     4861.0000     6     4866.0000     4861.0000     5798    0.10%
   2853   352        cutoff           4866.0000     4861.0000     5800    0.10%
   2854   351        cutoff           4866.0000     4861.0000     5804    0.10%
   2855   352     4861.0000     5     4866.0000     4861.0000     5806    0.10%
   2856   353     4861.0000     5     4866.0000     4861.0000     5807    0.10%
   2857   354     4861.0000     5     4866.0000     4861.0000     5808    0.10%
*  4463+  594                         4865.0000     4861.0000             0.08%
*  9743+ 2019                         4864.0000     4861.0000             0.06%
  10691  1990     4861.0000     6     4864.0000     4861.0000    19385    0.06%
Elapsed time = 1.22 sec. (962.30 ticks, tree = 0.55 MB, solutions = 15)
  23602  3648        cutoff           4864.0000     4861.0000    43837    0.06%
  23603  3647        cutoff           4864.0000     4861.0000    43839    0.06%
  23604  3646        cutoff           4864.0000     4861.0000    43841    0.06%
  23605  3645        cutoff           4864.0000     4861.0000    43847    0.06%
  23606  3646     4861.0000     6     4864.0000     4861.0000    43848    0.06%
  23607  3647     4861.0000     6     4864.0000     4861.0000    43853    0.06%
  23608  3648     4861.0000     6     4864.0000     4861.0000    43854    0.06%
  23609  3649     4861.0000     6     4864.0000     4861.0000    43855    0.06%
  23610  3648        cutoff           4864.0000     4861.0000    43857    0.06%
  23611  3647     4862.4432     7     4864.0000     4861.0000    43859    0.06%
Elapsed time = 2.55 sec. (1916.69 ticks, tree = 1.04 MB, solutions = 15)
* 23953  3636      integral     0     4863.0000     4861.0000    44557    0.04%
  41397  4046        cutoff           4863.0000     4861.0000    74859    0.04%
  41398  4045        cutoff           4863.0000     4861.0000    74861    0.04%
  41399  4044        cutoff           4863.0000     4861.0000    74864    0.04%
  41400  4043        cutoff           4863.0000     4861.0000    74869    0.04%
  41401  4042        cutoff           4863.0000     4861.0000    74874    0.04%
  41402  4041        cutoff           4863.0000     4861.0000    74876    0.04%
  41403  4040        cutoff           4863.0000     4861.0000    74878    0.04%
  41404  4039    infeasible           4863.0000     4861.0000    74878    0.04%
  41405  4038        cutoff           4863.0000     4861.0000    74882    0.04%
  41406  4039     4861.0000     8     4863.0000     4861.0000    74884    0.04%
Elapsed time = 3.81 sec. (2871.20 ticks, tree = 1.14 MB, solutions = 16)
  56825  6507        cutoff           4863.0000     4861.0000   104372    0.04%
  56826  6506        cutoff           4863.0000     4861.0000   104375    0.04%
  56827  6505    infeasible           4863.0000     4861.0000   104375    0.04%
  56828  6504        cutoff           4863.0000     4861.0000   104382    0.04%
  56829  6503        cutoff           4863.0000     4861.0000   104389    0.04%
  56830  6502        cutoff           4863.0000     4861.0000   104391    0.04%
  56831  6501        cutoff           4863.0000     4861.0000   104401    0.04%
  56832  6500        cutoff           4863.0000     4861.0000   104407    0.04%
  56833  6499    infeasible           4863.0000     4861.0000   104407    0.04%
  56834  6498    infeasible           4863.0000     4861.0000   104407    0.04%
Elapsed time = 5.07 sec. (3826.05 ticks, tree = 1.88 MB, solutions = 16)
  73786  6833        cutoff           4863.0000     4861.0000   133253    0.04%
  73787  6832        cutoff           4863.0000     4861.0000   133255    0.04%
  73788  6833     4861.0000     5     4863.0000     4861.0000   133256    0.04%
  73789  6834     4861.0000     5     4863.0000     4861.0000   133258    0.04%
  73790  6835     4861.0000     6     4863.0000     4861.0000   133261    0.04%
  73791  6836     4861.0000     5     4863.0000     4861.0000   133262    0.04%
  73792  6837     4861.0000     8     4863.0000     4861.0000   133264    0.04%
  73793  6836        cutoff           4863.0000     4861.0000   133266    0.04%
  73794  6835        cutoff           4863.0000     4861.0000   133268    0.04%
  73795  6834    infeasible           4863.0000     4861.0000   133268    0.04%
Elapsed time = 6.34 sec. (4780.56 ticks, tree = 1.97 MB, solutions = 16)
  90866  7158        cutoff           4863.0000     4861.0000   160572    0.04%
  90867  7157        cutoff           4863.0000     4861.0000   160574    0.04%
  90868  7157     4861.0000     6     4863.0000     4861.0000   160577    0.04%
  90869  7158     4861.0000     6     4863.0000     4861.0000   160580    0.04%
  90870  7159     4861.0000     6     4863.0000     4861.0000   160581    0.04%
  90871  7160     4861.0000     6     4863.0000     4861.0000   160582    0.04%
  90872  7161     4861.0000     6     4863.0000     4861.0000   160583    0.04%
  90873  7162     4861.0000     6     4863.0000     4861.0000   160584    0.04%
  90874  7163     4861.0000     6     4863.0000     4861.0000   160586    0.04%
  90875  7164     4861.0000     6     4863.0000     4861.0000   160588    0.04%
Elapsed time = 7.62 sec. (5734.81 ticks, tree = 2.06 MB, solutions = 16)
* 93443  7094      integral     0     4862.0000     4861.0000   164929    0.02%
 108979  7293    infeasible           4862.0000     4861.0000   186879    0.02%
 108980  7292    infeasible           4862.0000     4861.0000   186883    0.02%
 108981  7293     4861.0000     6     4862.0000     4861.0000   186884    0.02%
 108982  7294     4861.0000     6     4862.0000     4861.0000   186886    0.02%
 108983  7295     4861.0000     6     4862.0000     4861.0000   186890    0.02%
 108984  7296     4861.0000     8     4862.0000     4861.0000   186893    0.02%
 108985  7297     4861.0000     8     4862.0000     4861.0000   186894    0.02%
 108986  7298     4861.0000     8     4862.0000     4861.0000   186895    0.02%
 108987  7297    infeasible           4862.0000     4861.0000   186896    0.02%
 108988  7298     4861.0000     6     4862.0000     4861.0000   186897    0.02%
Elapsed time = 8.86 sec. (6688.97 ticks, tree = 2.09 MB, solutions = 17)
 127712  7724     4861.0000     6     4862.0000     4861.0000   212782    0.02%
 127713  7723    infeasible           4862.0000     4861.0000   212784    0.02%
 127714  7724     4861.0000     6     4862.0000     4861.0000   212785    0.02%
 127715  7725     4861.0000     6     4862.0000     4861.0000   212786    0.02%
 127716  7724    infeasible           4862.0000     4861.0000   212788    0.02%
 127717  7723    infeasible           4862.0000     4861.0000   212789    0.02%
 127718  7722    infeasible           4862.0000     4861.0000   212790    0.02%
 127719  7721    infeasible           4862.0000     4861.0000   212790    0.02%
 127720  7720    infeasible           4862.0000     4861.0000   212793    0.02%
 127721  7719    infeasible           4862.0000     4861.0000   212793    0.02%
Elapsed time = 10.10 sec. (7643.12 ticks, tree = 2.20 MB, solutions = 17)
 146458  8059    infeasible           4862.0000     4861.0000   239264    0.02%
 146459  8058    infeasible           4862.0000     4861.0000   239264    0.02%
 146460  8057    infeasible           4862.0000     4861.0000   239265    0.02%
 146461  8056    infeasible           4862.0000     4861.0000   239268    0.02%
 146462  8055    infeasible           4862.0000     4861.0000   239268    0.02%
 146463  8054    infeasible           4862.0000     4861.0000   239270    0.02%
 146464  8053    infeasible           4862.0000     4861.0000   239270    0.02%
 146465  8052    infeasible           4862.0000     4861.0000   239270    0.02%
 146466  8051    infeasible           4862.0000     4861.0000   239270    0.02%
 146467  8050    infeasible           4862.0000     4861.0000   239270    0.02%
Elapsed time = 11.35 sec. (8597.21 ticks, tree = 2.29 MB, solutions = 17)
 163551  8794    infeasible           4862.0000     4861.0000   264202    0.02%
 163552  8793    infeasible           4862.0000     4861.0000   264202    0.02%
 163553  8792    infeasible           4862.0000     4861.0000   264203    0.02%
 163554  8791    infeasible           4862.0000     4861.0000   264203    0.02%
 163555  8790    infeasible           4862.0000     4861.0000   264204    0.02%
 163556  8789    infeasible           4862.0000     4861.0000   264205    0.02%
 163557  8790     4861.0000     6     4862.0000     4861.0000   264206    0.02%
 163558  8791     4861.0000     6     4862.0000     4861.0000   264208    0.02%
 163559  8792     4861.0000     6     4862.0000     4861.0000   264209    0.02%
 208583 13917     4861.0000     7     4862.0000     4861.0000   338059    0.02%
Elapsed time = 16.24 sec. (12412.05 ticks, tree = 4.02 MB, solutions = 17)
 263505 15412    infeasible           4862.0000     4861.0000   431963    0.02%
 263506 15411    infeasible           4862.0000     4861.0000   431965    0.02%
 263507 15410    infeasible           4862.0000     4861.0000   431968    0.02%
 263508 15411     4861.0000     7     4862.0000     4861.0000   431970    0.02%
 263509 15412     4861.0000     7     4862.0000     4861.0000   431971    0.02%
 263510 15413     4861.0000     7     4862.0000     4861.0000   431972    0.02%
 263511 15413     4861.0000     7     4862.0000     4861.0000   431973    0.02%
 263512 15412    infeasible           4862.0000     4861.0000   431976    0.02%
 263513 15411    infeasible           4862.0000     4861.0000   431978    0.02%
 263514 15410    infeasible           4862.0000     4861.0000   431981    0.02%
Elapsed time = 21.11 sec. (16227.36 ticks, tree = 4.41 MB, solutions = 17)
 324274 23466    infeasible           4862.0000     4861.0000   534974    0.02%
 324275 23467     4861.0000     6     4862.0000     4861.0000   534975    0.02%
 324276 23468     4861.0000     6     4862.0000     4861.0000   534980    0.02%
 324277 23469     4861.0000     5     4862.0000     4861.0000   534982    0.02%
 324278 23470     4861.0000     6     4862.0000     4861.0000   534983    0.02%
 324279 23471     4861.0000     5     4862.0000     4861.0000   534984    0.02%
 324280 23472     4861.0000     6     4862.0000     4861.0000   534986    0.02%
 324281 23473     4861.0000     5     4862.0000     4861.0000   534989    0.02%
 324282 23474     4861.0000     6     4862.0000     4861.0000   534991    0.02%
 324283 23475     4861.0000     6     4862.0000     4861.0000   534992    0.02%
Elapsed time = 25.93 sec. (20043.16 ticks, tree = 6.95 MB, solutions = 17)
 384221 26229     4861.0000     6     4862.0000     4861.0000   636156    0.02%
 384222 26230     4861.0000     6     4862.0000     4861.0000   636157    0.02%
 384223 26229    infeasible           4862.0000     4861.0000   636159    0.02%
 384224 26228    infeasible           4862.0000     4861.0000   636161    0.02%
 384225 26229     4861.0000     6     4862.0000     4861.0000   636164    0.02%
 384226 26229     4861.0000     8     4862.0000     4861.0000   636166    0.02%
 384227 26230     4861.0000     6     4862.0000     4861.0000   636168    0.02%
 384228 26231     4861.0000     6     4862.0000     4861.0000   636169    0.02%
 384229 26232     4861.0000     6     4862.0000     4861.0000   636170    0.02%
 384230 26233     4861.0000     6     4862.0000     4861.0000   636171    0.02%
Elapsed time = 30.89 sec. (23858.43 ticks, tree = 7.69 MB, solutions = 17)
 441813 27776    infeasible           4862.0000     4861.0000   729485    0.02%
 441814 27775    infeasible           4862.0000     4861.0000   729489    0.02%
 441815 27774    infeasible           4862.0000     4861.0000   729490    0.02%
 441816 27773    infeasible           4862.0000     4861.0000   729492    0.02%
 441817 27772    infeasible           4862.0000     4861.0000   729494    0.02%
 441818 27771    infeasible           4862.0000     4861.0000   729496    0.02%
 441819 27772     4861.0000     6     4862.0000     4861.0000   729497    0.02%
 441820 27773     4861.0000     6     4862.0000     4861.0000   729498    0.02%
 441821 27774     4861.0000     6     4862.0000     4861.0000   729500    0.02%
 441822 27775     4861.0000     6     4862.0000     4861.0000   729503    0.02%
Elapsed time = 35.79 sec. (27674.23 ticks, tree = 8.09 MB, solutions = 17)
 502380 30032    infeasible           4862.0000     4861.0000   825121    0.02%
 502381 30031    infeasible           4862.0000     4861.0000   825123    0.02%
 502382 30032     4861.0000     6     4862.0000     4861.0000   825128    0.02%
 502383 30033     4861.0000     6     4862.0000     4861.0000   825129    0.02%
 502384 30032    infeasible           4862.0000     4861.0000   825134    0.02%
 502385 30033     4861.0000     6     4862.0000     4861.0000   825135    0.02%
 502386 30034     4861.0000     6     4862.0000     4861.0000   825136    0.02%
 502387 30035     4861.0000     6     4862.0000     4861.0000   825139    0.02%
 502388 30034    infeasible           4862.0000     4861.0000   825142    0.02%
 502389 30035     4861.0000     6     4862.0000     4861.0000   825144    0.02%
Elapsed time = 40.71 sec. (31489.81 ticks, tree = 8.71 MB, solutions = 17)
 561008 32305     4861.0000     6     4862.0000     4861.0000   925286    0.02%
 561009 32306     4861.0000     8     4862.0000     4861.0000   925289    0.02%
 561010 32305    infeasible           4862.0000     4861.0000   925289    0.02%
 561011 32306     4861.0000     8     4862.0000     4861.0000   925290    0.02%
 561012 32307     4861.0000     8     4862.0000     4861.0000   925291    0.02%
 561013 32306    infeasible           4862.0000     4861.0000   925294    0.02%
 561014 32305    infeasible           4862.0000     4861.0000   925296    0.02%
 561015 32306     4861.0000     6     4862.0000     4861.0000   925299    0.02%
 561016 32307     4861.0000     6     4862.0000     4861.0000   925304    0.02%
 561017 32308     4861.0000     6     4862.0000     4861.0000   925305    0.02%
Elapsed time = 45.61 sec. (35305.01 ticks, tree = 9.32 MB, solutions = 17)
 629291 54865     4861.0000     8     4862.0000     4861.0000  1033404    0.02%
 629292 54866     4861.0000     6     4862.0000     4861.0000  1033405    0.02%
 629293 54867     4861.0000     6     4862.0000     4861.0000  1033406    0.02%
 629294 54868     4861.0000     6     4862.0000     4861.0000  1033407    0.02%
 629295 54869     4861.0000     5     4862.0000     4861.0000  1033408    0.02%
 629296 54868    infeasible           4862.0000     4861.0000  1033410    0.02%
 629297 54867    infeasible           4862.0000     4861.0000  1033411    0.02%
 629298 54866    infeasible           4862.0000     4861.0000  1033414    0.02%
 629299 54867     4861.0000     6     4862.0000     4861.0000  1033417    0.02%
 629300 54868     4861.0000     6     4862.0000     4861.0000  1033418    0.02%
Elapsed time = 50.44 sec. (39177.23 ticks, tree = 15.96 MB, solutions = 17)
 695769 78772     4861.0000     5     4862.0000     4861.0000  1141936    0.02%
 695770 78773     4861.0000     5     4862.0000     4861.0000  1141937    0.02%
 695771 78774     4861.0000     6     4862.0000     4861.0000  1141939    0.02%
 695772 78775     4861.0000     6     4862.0000     4861.0000  1141940    0.02%
 695773 78776     4861.0000     6     4862.0000     4861.0000  1141941    0.02%
 695774 78777     4861.0000     6     4862.0000     4861.0000  1141942    0.02%
 695775 78778     4861.0000     6     4862.0000     4861.0000  1141943    0.02%
 695776 78779     4861.0000     6     4862.0000     4861.0000  1141944    0.02%
 695777 78780     4861.0000     6     4862.0000     4861.0000  1141945    0.02%
 695778 78781     4861.0000     6     4862.0000     4861.0000  1141946    0.02%
Elapsed time = 55.31 sec. (42992.25 ticks, tree = 23.97 MB, solutions = 17)
 767978 106779    infeasible           4862.0000     4861.0000  1249885    0.02%
 767979 106780     4861.0000     6     4862.0000     4861.0000  1249886    0.02%
 767980 106780     4861.0000     8     4862.0000     4861.0000  1249889    0.02%
 767981 106781     4861.0000     6     4862.0000     4861.0000  1249890    0.02%
 767982 106782     4861.0000     6     4862.0000     4861.0000  1249891    0.02%
 767983 106783     4861.0000     6     4862.0000     4861.0000  1249892    0.02%
 767984 106784     4861.0000     6     4862.0000     4861.0000  1249893    0.02%
 767985 106785     4861.0000     6     4862.0000     4861.0000  1249894    0.02%
 767986 106786     4861.0000     6     4862.0000     4861.0000  1249895    0.02%
 767987 106785    infeasible           4862.0000     4861.0000  1249896    0.02%
Elapsed time = 60.18 sec. (46807.22 ticks, tree = 31.00 MB, solutions = 17)
 830594 109588     4861.0000     8     4862.0000     4861.0000  1344682    0.02%
 830595 109589     4861.0000     8     4862.0000     4861.0000  1344683    0.02%
 830596 109590     4861.0000     8     4862.0000     4861.0000  1344684    0.02%
 830597 109591     4861.0000     8     4862.0000     4861.0000  1344685    0.02%
 830598 109592     4861.0000     8     4862.0000     4861.0000  1344686    0.02%
 830599 109593     4861.0000     8     4862.0000     4861.0000  1344687    0.02%
 830600 109592    infeasible           4862.0000     4861.0000  1344694    0.02%
 830601 109593     4861.0000     6     4862.0000     4861.0000  1344696    0.02%
 830602 109594     4861.0000     6     4862.0000     4861.0000  1344697    0.02%
 830603 109595     4861.0000     5     4862.0000     4861.0000  1344698    0.02%
Elapsed time = 65.10 sec. (50622.36 ticks, tree = 31.73 MB, solutions = 17)
 895363 111183    infeasible           4862.0000     4861.0000  1438936    0.02%
 895364 111184     4861.0000     6     4862.0000     4861.0000  1438937    0.02%
 895365 111185     4861.0000     6     4862.0000     4861.0000  1438938    0.02%
 895366 111184    infeasible           4862.0000     4861.0000  1438941    0.02%
 895367 111185     4861.0000     6     4862.0000     4861.0000  1438943    0.02%
 895368 111186     4861.0000     6     4862.0000     4861.0000  1438944    0.02%
 895369 111187     4861.0000     6     4862.0000     4861.0000  1438945    0.02%
 895370 111188     4861.0000     6     4862.0000     4861.0000  1438946    0.02%
 895371 111189     4861.0000     6     4862.0000     4861.0000  1438947    0.02%
 895372 111190     4861.0000     6     4862.0000     4861.0000  1438948    0.02%
Elapsed time = 70.00 sec. (54437.90 ticks, tree = 32.16 MB, solutions = 17)
 954858 112816    infeasible           4862.0000     4861.0000  1528875    0.02%
 954859 112815    infeasible           4862.0000     4861.0000  1528877    0.02%
 954860 112814    infeasible           4862.0000     4861.0000  1528879    0.02%
 954861 112813    infeasible           4862.0000     4861.0000  1528880    0.02%
 954862 112814     4861.0000     6     4862.0000     4861.0000  1528881    0.02%
 954863 112815     4861.0000     8     4862.0000     4861.0000  1528884    0.02%
 954864 112815     4861.0000     8     4862.0000     4861.0000  1528885    0.02%
 954865 112816     4861.0000     6     4862.0000     4861.0000  1528886    0.02%
 954866 112817     4861.0000     6     4862.0000     4861.0000  1528887    0.02%
 954867 112816    infeasible           4862.0000     4861.0000  1528891    0.02%
Elapsed time = 74.90 sec. (58253.41 ticks, tree = 32.59 MB, solutions = 17)
 1012947 113880    infeasible           4862.0000     4861.0000  1618172    0.02%
 1012948 113879    infeasible           4862.0000     4861.0000  1618173    0.02%
 1012949 113878    infeasible           4862.0000     4861.0000  1618174    0.02%
 1012950 113877    infeasible           4862.0000     4861.0000  1618175    0.02%
 1012951 113876    infeasible           4862.0000     4861.0000  1618176    0.02%
 1012952 113875    infeasible           4862.0000     4861.0000  1618177    0.02%
 1012953 113874    infeasible           4862.0000     4861.0000  1618179    0.02%
 1012954 113873    infeasible           4862.0000     4861.0000  1618183    0.02%
 1012955 113872    infeasible           4862.0000     4861.0000  1618185    0.02%
 1012956 113871    infeasible           4862.0000     4861.0000  1618187    0.02%
Elapsed time = 79.80 sec. (62069.27 ticks, tree = 32.87 MB, solutions = 17)
 1071303 115863    infeasible           4862.0000     4861.0000  1710877    0.02%
 1071304 115862    infeasible           4862.0000     4861.0000  1710878    0.02%
 1071305 115861    infeasible           4862.0000     4861.0000  1710879    0.02%
 1071306 115860    infeasible           4862.0000     4861.0000  1710879    0.02%
 1071307 115859    infeasible           4862.0000     4861.0000  1710884    0.02%
 1071308 115858    infeasible           4862.0000     4861.0000  1710885    0.02%
 1071309 115857    infeasible           4862.0000     4861.0000  1710885    0.02%
 1071310 115856    infeasible           4862.0000     4861.0000  1710886    0.02%
 1071311 115855    infeasible           4862.0000     4861.0000  1710887    0.02%
 1071312 115854    infeasible           4862.0000     4861.0000  1710888    0.02%
Elapsed time = 84.73 sec. (65884.52 ticks, tree = 33.41 MB, solutions = 17)
 1131943 116797     4861.0000     8     4862.0000     4861.0000  1803559    0.02%
 1131944 116796    infeasible           4862.0000     4861.0000  1803563    0.02%
 1131945 116795    infeasible           4862.0000     4861.0000  1803566    0.02%
 1131946 116794    infeasible           4862.0000     4861.0000  1803568    0.02%
 1131947 116793    infeasible           4862.0000     4861.0000  1803568    0.02%
 1131948 116794     4861.0000     6     4862.0000     4861.0000  1803569    0.02%
 1131949 116795     4861.0000     6     4862.0000     4861.0000  1803570    0.02%
 1131950 116796     4861.0000     6     4862.0000     4861.0000  1803571    0.02%
 1131951 116797     4861.0000     6     4862.0000     4861.0000  1803572    0.02%
 1131952 116798     4861.0000     6     4862.0000     4861.0000  1803573    0.02%
Elapsed time = 89.64 sec. (69699.91 ticks, tree = 33.68 MB, solutions = 17)
*1153163+    1                         4861.0000     4861.0000             0.00%

Mixed integer rounding cuts applied:  1

Root node processing (before b&c):
  Real time             =    0.01 sec. (8.72 ticks)
Sequential b&c:
  Real time             =   92.05 sec. (71768.57 ticks)
                          ------------
Total (root+branch&cut) =   92.07 sec. (71777.29 ticks)

Solution pool: 18 solutions saved.

MIP - Integer optimal solution:  Objective =  4.8610000000e+03
Solution time =   92.07 sec.  Iterations = 1835036  Nodes = 1153163
Deterministic time = 71777.29 ticks  (779.64 ticks/sec)


Incumbent solution written to file '/tmp/tmpORSliO.cplex.sol'.
